c Random generated cnf formula, satisfiable: false
p cnf 10 50
6 -2 -5 0
-1 -5 -2 0
2 10 6 0
7 10 -6 0
4 -10 -7 0
7 -5 -9 0
-5 9 -8 0
4 10 -7 0
10 -8 -7 0
-5 8 4 0
5 -4 2 0
3 -8 4 0
1 -8 -10 0
6 -1 3 0
6 -1 -5 0
9 -10 3 0
-8 4 -9 0
-9 5 -3 0
-8 -2 -1 0
-2 -9 -1 0
6 7 10 0
3 10 -4 0
-1 -9 -6 0
-9 10 -4 0
5 -9 10 0
7 -2 5 0
8 2 7 0
-8 -9 -6 0
10 -6 -7 0
4 -1 -3 0
-6 5 3 0
-9 -10 -7 0
6 4 5 0
1 -7 -5 0
8 9 -10 0
-10 -7 -9 0
-7 -5 8 0
-1 5 3 0
9 7 5 0
-9 3 7 0
10 1 -8 0
-5 -1 4 0
-5 -6 -7 0
-6 3 -8 0
8 -3 5 0
-10 4 5 0
4 -5 8 0
3 -4 -6 0
-8 -7 10 0
8 -3 -10 0
